1033390
44,72,99,76,87,86,4,66,7,39,92,14,81,45,38,50,88,36,3,5,64,27,2,42,97,35,83,15,16,82,61,58,67,46,28,11,23,98,54,71,34,90,59,24,43,65,52,19,12,94,51,40,79,29,78,25,17,26,22,84,73,95,47,57,33,9,1,48,37,74,70,32,80,68,13,31,62,56,10,75,69,41,6,18,77,96,21,20,30,60,63,93,49,91,53,89,85,8,55